# LAMMPS input script by Simon Gravelle
# For LAMMPS tutorials, see https://lammpstutorials.github.io
# Last tested using the 27Jun2024 LAMMPS version

variable box0 equal 80
variable boxm equal -${box0}/2
variable boxp equal ${box0}/2
variable Nb0 equal 0

units real
boundary p p p
atom_style full
pair_style lj/cut/coul/long 12
kspace_style ewald 1.0e-5
kspace_modify gewald 1
bond_style harmonic
angle_style harmonic
pair_modify mix geometric
special_bonds lj 0.0 0.0 0.0 coul 0.0 0.0 0.0 angle yes

region box block ${boxm} ${boxp} ${boxm} ${boxp} ${boxm} ${boxp}
create_box 3 box bond/types 2 angle/types 2 &
    extra/bond/per/atom 4 extra/angle/per/atom 3 extra/special/per/atom 4
labelmap atom 1 OH 2 HO 3 MO 
labelmap bond 1 OH-HO 2 OH-MO
labelmap angle 1 HO-OH-HO 2 HO-OH-MO

molecule h2Omol H2O.mol
create_atoms 0 random ${Nb0} 87910 NULL mol &
    h2Omol 454756 overlap 3.0 maxtry 1000

group H2O type OH HO MO
include parm.lmp

run 0
write_data box.data

clear

variable Nb1 equal 3000

units real
boundary p p p
atom_style full
pair_style lj/cut/coul/long 12
kspace_style ewald 1.0e-5
bond_style harmonic
angle_style harmonic
pair_modify mix geometric
special_bonds lj 0.0 0.0 0.0 coul 0.0 0.0 0.0 angle yes

region box block -40 40 -40 40 -40 40
create_box 3 box bond/types 2 angle/types 2 &
    extra/bond/per/atom 4 extra/angle/per/atom 3 extra/special/per/atom 4
labelmap atom 1 OH 2 HO 3 MO 
labelmap bond 1 OH-HO 2 OH-MO
labelmap angle 1 HO-OH-HO 2 HO-OH-MO

molecule h2Omol H2O.mol
create_atoms 0 random ${Nb1} 87910 NULL mol &
    h2Omol 454756 overlap 3.0 maxtry 1000

group H2O type OH HO MO
include parm.lmp

run 0
write_data reservoir.data
