# LAMMPS input script by Simon Gravelle
# For LAMMPS tutorials, see https://lammpstutorials.github.io
# Last tested using the 27Jun2024 LAMMPS version

variable box0 equal 25
variable boxm equal -${box0}/2
variable boxp equal ${box0}/2

units real
boundary p p p
atom_style full
pair_style lj/cut/coul/long 12
kspace_style ewald 1.0e-5
bond_style harmonic
angle_style harmonic
pair_modify mix geometric
special_bonds lj 0.0 0.0 0.0 coul 0.0 0.0 0.0 angle yes

region box block ${boxm} ${boxp} ${boxm} ${boxp} ${boxm} ${boxp}
create_box 2 box bond/types 1 angle/types 1 &
    extra/bond/per/atom 2 extra/angle/per/atom 1 extra/special/per/atom 2
labelmap atom 1 O 2 H 
labelmap bond 1 O-H
labelmap angle 1 H-O-H

molecule h2Omol H2O.mol
create_atoms 0 random 20 87910 NULL mol &
    h2Omol 454756 overlap 3.0 maxtry 1000

group H2O type O H
include parm.lmp

run 0
write_data H2O-0.data

clear

variable Nb1 equal 2000

units real
boundary p p p
atom_style full
pair_style lj/cut/coul/long 12
kspace_style ewald 1.0e-5
bond_style harmonic
angle_style harmonic
pair_modify mix geometric
special_bonds lj 0.0 0.0 0.0 coul 0.0 0.0 0.0 angle yes

region box block -40 40 -40 40 -40 40
create_box 2 box bond/types 1 angle/types 1 &
    extra/bond/per/atom 2 extra/angle/per/atom 1 extra/special/per/atom 2
labelmap atom 1 O 2 H 
labelmap bond 1 O-H
labelmap angle 1 H-O-H

molecule h2Omol H2O.mol
create_atoms 0 random ${Nb1} 87910 NULL mol &
    h2Omol 454756 overlap 3.0 maxtry 1000

group H2O type O H
include parm.lmp

run 0
write_data H2O-1.data
