# LAMMPS input script by Simon Gravelle
# For LAMMPS tutorials, see https://lammpstutorials.github.io
# Last tested using the 27Jun2024 LAMMPS version

variable Nstep equal 2500000
variable mu_K equal -3200
variable mu_kcal_mol equal ${mu_K}*0.0019872041
print "mu equal ${mu_kcal_mol}"
variable tfac equal 5.0/3.0
variable Nattempt equal 100

units real
boundary p p p
atom_style full
pair_style lj/cut/coul/long 12
kspace_style ewald 1.0e-5
bond_style harmonic
angle_style harmonic
pair_modify mix geometric
special_bonds lj 0.0 0.0 0.0 coul 0.0 0.0 0.0 angle yes

read_data box.data
labelmap atom 1 O 2 C 
labelmap bond 1 C-O
labelmap angle 1 O-C-O

group CO2 type C O
include parm.lmp
molecule CO2mol CO2.mol

fix mynvt CO2 rigid/nvt/small molecule temp 300 300 100 mol CO2mol
thermo 1000

run 2000

fix fgcmc CO2 gcmc 100 ${Nattempt} 0 0 25899 300 ${mu_kcal_mol} 0.1 &
    mol CO2mol tfac_insert ${tfac} full_energy rigid mynvt

variable carbon atom "type==2"
group carbon dynamic all var carbon
variable nC equal count(carbon)
fix myat1 all ave/time 10 10 1000 v_nC file number_CO2.dat
variable density equal v_nC*(2*15.9994+12.011)/vol/6.022e23*(1e8)^3
fix myat2 all ave/time 10 10 1000 v_density file density_CO2.dat
compute press all pressure thermo_temp
fix myat3 all ave/time 10 100 1000 c_press file pressure_CO2.dat
thermo_style custom step temp etotal v_nC

run ${Nstep}
