# LAMMPS input script by Simon Gravelle
# For LAMMPS tutorials, see https://lammpstutorials.github.io
# Last tested using the 27Jun2024 LAMMPS version

variable Nstep equal 2500000
variable mu_K equal -3900
variable mu_kcal_mol equal ${mu_K}*0.0019872041
print "mu equal ${mu_kcal_mol}"
variable tfac equal 5.0/3.0
variable Nattempt equal 100

units real
boundary p p p
atom_style full
pair_style lj/cut/coul/long 12
kspace_style ewald 1.0e-5
bond_style harmonic
angle_style harmonic
pair_modify mix geometric
special_bonds lj 0.0 0.0 0.0 coul 0.0 0.0 0.0 angle yes

read_data box.data
labelmap atom 1 O 2 H 
labelmap bond 1 O-H
labelmap angle 1 H-O-H

group H2O type O H
include parm.lmp
molecule h2Omol H2O.mol

fix mynvt H2O rigid/nvt/small molecule temp 300 300 100 mol h2Omol
thermo 1000

run 2000

fix fgcmc H2O gcmc 100 ${Nattempt} 0 0 65899 300 ${mu_kcal_mol} 0.1 &
    mol h2Omol tfac_insert ${tfac} full_energy rigid mynvt

variable oxygen atom "type==1"
group oxygen dynamic all var oxygen
variable nO equal count(oxygen)
fix myat1 all ave/time 100 1 100 v_nO file number_H2O.dat
variable density equal v_nO*(15.9994+2*1.008)/vol/6.022e23*(1e8)^3
fix myat2 all ave/time 100 1 100 v_density file density_H2O.dat
compute press all pressure thermo_temp
fix myat3 all ave/time 10 100 1000 c_press file pressure_H2O.dat
thermo_style custom step temp etotal v_nO

run ${Nstep}
